problems/csplib-prob030/BalancedAcademicCurriculumProblem-models/noch/O2/minion/model-bacp-13-solution000001.eprime-solution
language ESSENCE' 1.0

letting curr_Function1D be
        [9, 9, 9, 9, 8, 8, 8, 8, 8, 2, 8, 8, 2, 8, 8, 1, 7, 7, 7, 6, 6, 6, 6, 6, 5, 5, 5, 5, 5, 2, 4, 4, 4, 4, 1, 1, 3,
         1, 3, 3, 1, 3, 1, 2, 1, 2, 1, 10, 10, 1;
             int(1..50)]
