problems/csplib-prob030/BalancedAcademicCurriculumProblem-models/noch/O2/minion/model-bacp-13-solution000001.solution
language Essence 1.3

letting curr be
        function(1 --> 9, 2 --> 9, 3 --> 9, 4 --> 9, 5 --> 8, 6 --> 8, 7 --> 8, 8 --> 8, 9 --> 8, 10 --> 2, 11 --> 8,
                 12 --> 8, 13 --> 2, 14 --> 8, 15 --> 8, 16 --> 1, 17 --> 7, 18 --> 7, 19 --> 7, 20 --> 6, 21 --> 6,
                 22 --> 6, 23 --> 6, 24 --> 6, 25 --> 5, 26 --> 5, 27 --> 5, 28 --> 5, 29 --> 5, 30 --> 2, 31 --> 4,
                 32 --> 4, 33 --> 4, 34 --> 4, 35 --> 1, 36 --> 1, 37 --> 3, 38 --> 1, 39 --> 3, 40 --> 3, 41 --> 1,
                 42 --> 3, 43 --> 1, 44 --> 2, 45 --> 1, 46 --> 2, 47 --> 1, 48 --> 10, 49 --> 10, 50 --> 1)
